(declare-fun $V85_p4$3 () Bool)
(declare-fun $V83_p2$3 () Bool)
(declare-fun $V86_ccont$3 () Bool)
(declare-fun $cccanc$1 () Bool)
(declare-fun $V87_cca$3 () Bool)
(declare-fun $~flatten0$0 () Bool)
(declare-fun $sdok$1 () Bool)
(declare-fun $accok$1 () Bool)
(declare-fun $qfok$1 () Bool)
(declare-fun $sdok$0 () Bool)
(declare-fun $OK$3 () Bool)
(declare-fun $gearok$1 () Bool)
(declare-fun $cconoff$0 () Bool)
(declare-fun $ccd$1 () Bool)
(declare-fun $bpa$1 () Bool)
(declare-fun $battok$1 () Bool)
(declare-fun $igsw$0 () Bool)
(declare-fun $vs$1 () Int)
(declare-fun $V86_ccont$0 () Bool)
(declare-fun $V82_p1$3 () Bool)
(declare-fun $igsw$1 () Bool)
(declare-fun $V84_p3$3 () Bool)
(declare-fun $cconoff$1 () Bool)

(assert (let ((a!1 (not (or (and $igsw$1 (not $igsw$0)) (and (not $igsw$1) $igsw$0))))
      (a!2 (not (and true
                     (not $bpa$1)
                     $battok$1
                     $gearok$1
                     $qfok$1
                     (ite false false (and $sdok$0 $sdok$1))
                     (<= 35 $vs$1)
                     (<= $vs$1 200)
                     (ite false false (and $~flatten0$0 $accok$1))
                     (not $cccanc$1))))
      (a!3 (ite false
                false
                (or (and $igsw$1 (not $igsw$0)) (and (not $igsw$1) $igsw$0))))
      (a!5 (ite (or (and (not $igsw$0) $igsw$1) (and $igsw$0 (not $igsw$1)))
                (not false)
                true)))
(let ((a!4 (and (not a!3)
                (not $ccd$1)
                (ite false false (and $cconoff$1 (not $cconoff$0))))))
(let ((a!6 (and true
                (ite a!2 (not false) true)
                (ite (and true (not $V86_ccont$0)) a!4 true)
                a!5))
      (a!7 (= $V84_p3$3 (ite (and true (not $V86_ccont$0)) a!4 true))))
(let ((a!8 (and (= $OK$3 a!6)
                (= $V82_p1$3 true)
                (= $V83_p2$3 (ite a!2 (not false) true))
                a!7
                (= $V85_p4$3 a!5)
                (= $V87_cca$3 false)
                (= $V86_ccont$3 true))))
  (ite (or $V86_ccont$0 (and a!1 (not $ccd$1) $cconoff$1 (not $cconoff$0)))
       a!8
       (and (= $OK$3 (and true a!5))
            (= $V82_p1$3 true)
            (= $V83_p2$3 true)
            (= $V84_p3$3 true)
            (= $V85_p4$3 a!5)
            (= $V87_cca$3 false)
            (= $V86_ccont$3 false))))))))
(check-sat)
